
Log started (V12.6.1.0) Thu Dec 21 13:47:42 2017


Problem 'MG_y.lp' read.
Read time = 0.06 sec. (3.41 ticks)

Log started (V12.6.1.0) Thu Dec 21 15:18:48 2017


Problem 'MG_y.lp' read.
Read time = 0.09 sec. (3.41 ticks)
Tried aggregator 2 times.
MIP Presolve eliminated 18074 rows and 1298 columns.
MIP Presolve modified 144 coefficients.
Aggregator did 8 substitutions.
Reduced MIP has 3741 rows, 17584 columns, and 105823 nonzeros.
Reduced MIP has 17386 binaries, 198 generals, 0 SOSs, and 0 indicators.
Presolve time = 0.11 sec. (85.58 ticks)
Found incumbent of value 779.000000 after 0.34 sec. (213.42 ticks)
Probing time = 0.05 sec. (7.36 ticks)
Tried aggregator 1 time.
Reduced MIP has 3741 rows, 17584 columns, and 105823 nonzeros.
Reduced MIP has 17386 binaries, 198 generals, 0 SOSs, and 0 indicators.
Presolve time = 0.05 sec. (46.77 ticks)
Probing time = 0.03 sec. (6.47 ticks)
Clique table members: 46586.
MIP emphasis: balance optimality and feasibility.
MIP search method: dynamic search.
Parallel mode: deterministic, using up to 4 threads.
Root relaxation solution time = 0.44 sec. (390.12 ticks)

        Nodes                                         Cuts/
   Node  Left     Objective  IInf  Best Integer    Best Bound    ItCnt     Gap

*     0+    0                          779.0000     -655.0000           184.08%
*     0+    0                          217.0000     -655.0000           401.84%
      0     0       17.0000  1191      217.0000       17.0000       10   92.17%
      0     0       22.5111   372      217.0000      Cuts: 16     1701   89.63%
      0     0       28.5764   503      217.0000      Cuts: 41     2212   86.83%
      0     0       28.5764   504      217.0000      Cuts: 17     2681   86.83%
      0     2       28.5764   144      217.0000       28.5764     2681   86.83%
Elapsed time = 14.17 sec. (13130.13 ticks, tree = 0.00 MB, solutions = 2)
      2     4       28.5764   234      217.0000       28.5764     4001   86.83%
      4     6       28.5764   433      217.0000       28.5764     6229   86.83%
*     5+    5                           56.0000       28.5764            48.97%
      7     9       28.5764   458       56.0000       28.5764    13588   48.97%
      9    11       28.5764   515       56.0000       28.5764    18263   48.97%
     11    13       28.5764   458       56.0000       28.5764    19902   48.97%
     16    18       28.5764   383       56.0000       28.5764    28635   48.97%
     20    22       28.5764   270       56.0000       28.5764    37598   48.97%
     26    28       28.5764   643       56.0000       28.5764    43933   48.97%
*    27+   27                           50.0000       28.5764            42.85%
     30    32       28.7014   354       50.0000       28.5764    47804   42.85%
     37    37        cutoff             50.0000       28.5764    63753   42.85%
Elapsed time = 26.36 sec. (22411.30 ticks, tree = 0.00 MB, solutions = 4)
     62    62       28.5764   381       50.0000       28.5764    94455   42.85%
     95    95       28.8125   206       50.0000       28.5764   120105   42.85%
    126   126       28.5764   608       50.0000       28.5764   165774   42.85%
    146   146       28.5764   636       50.0000       28.5764   189926   42.85%
    181   181       28.5764   606       50.0000       28.5764   239306   42.85%
    298   298       34.9626   246       50.0000       28.5764   380508   42.85%
    330   330       39.2222   181       50.0000       28.5764   411211   42.85%
    351   351       38.7576   406       50.0000       28.5764   427863   42.85%
    437   435       40.7361   427       50.0000       28.5764   490182   42.85%
*   448+  440                           49.0000       28.5764            41.68%
    483   477       45.0000   478       49.0000       28.5764   525250   41.68%
Elapsed time = 48.47 sec. (35369.59 ticks, tree = 3.09 MB, solutions = 4)
    569   551       45.0000   107       49.0000       28.5764   606656   41.68%
    627   599       45.0000    80       49.0000       28.5764   657885   41.68%
    687   659       45.0000   102       49.0000       28.5764   730383   41.68%
    763   733       45.0444   125       49.0000       28.5764   791046   41.68%
    830   792       45.0000   149       49.0000       28.5764   867830   41.68%
    873   833       39.6091   229       49.0000       28.5764   937394   41.68%
    891   851       45.1429   179       49.0000       28.5764   969924   41.68%
    936   892       45.5179   141       49.0000       28.5764  1027085   41.68%
    958   906       47.0000    97       49.0000       28.5764  1053558   41.68%
    994   940       47.0000   123       49.0000       28.5764  1090599   41.68%
Elapsed time = 68.44 sec. (46099.55 ticks, tree = 8.69 MB, solutions = 5)
   1106  1024       47.3333    66       49.0000       28.5764  1122787   41.68%
   1146  1056       47.0000    40       49.0000       28.5764  1136317   41.68%
   1208  1096       31.9097   598       49.0000       28.5764  1166310   41.68%
*  1209+ 1095                           48.0000       28.5764            40.47%
   1233   947       36.2500   263       48.0000       28.5764  1183628   40.47%
   1275   989       42.2778   221       48.0000       28.5764  1212503   40.47%
   1323  1031       46.3333    87       48.0000       28.5764  1248580   40.47%
   1381  1081       46.0000   100       48.0000       28.5764  1306262   40.47%
   1435  1119       46.2000   138       48.0000       28.5764  1375206   40.47%
   1454  1128       46.5333   106       48.0000       28.5764  1402589   40.47%
   1464  1128       35.1389   286       48.0000       28.5764  1411081   40.47%
Elapsed time = 90.03 sec. (57139.22 ticks, tree = 10.94 MB, solutions = 6)
   1537  1187       44.2222   110       48.0000       28.5764  1451008   40.47%
   1565  1215       45.0000   193       48.0000       28.5764  1476574   40.47%
   1652  1296       45.0000    86       48.0000       28.5764  1553909   40.47%
   1721  1365       47.0000    63       48.0000       28.5764  1614892   40.47%
   1818  1440       44.4107   111       48.0000       28.5764  1713468   40.47%
   1826  1448       46.0000   102       48.0000       28.5764  1721667   40.47%
   1838  1458       46.0000    93       48.0000       28.5764  1733104   40.47%
*  1918  1498      integral     0       47.0000       28.5764  1792657   39.20%
   1985  1315       44.2500   131       47.0000       28.5764  1853407   39.20%
   2033  1345       44.5000   144       47.0000       28.5764  1914123   39.20%
   2119  1391       44.2500   158       47.0000       28.5764  2007216   39.20%
Elapsed time = 112.42 sec. (68505.05 ticks, tree = 13.37 MB, solutions = 7)
   2153  1423       39.1875   222       47.0000       28.5764  2040069   39.20%
   2219  1467       45.4524    94       47.0000       28.5764  2113714   39.20%
   2279  1505       45.4857    91       47.0000       28.5764  2168817   39.20%
   2319  1537       45.4857   118       47.0000       28.5764  2215352   39.20%
   2387  1595       38.0000   171       47.0000       28.5764  2275218   39.20%
   2501  1689       44.9692   111       47.0000       44.9692  2387738    4.32%
   2502  1689       45.0000   140       47.0000       44.9692  2391337    4.32%
   2505  1267       45.0000   206       47.0000       45.0000  2393046    4.26%
   2512  1272       45.0000   420       47.0000       45.0000  2397867    4.26%
   2516  1275       45.0000   434       47.0000       45.0000  2405153    4.26%
Elapsed time = 177.48 sec. (107455.48 ticks, tree = 14.35 MB, solutions = 7)
   2523  1209       45.0000   258       47.0000       45.0000  2414012    4.26%
   2525  1209       45.0000   345       47.0000       45.0000  2420331    4.26%
   2532  1160       45.0000   379       47.0000       45.0000  2423711    4.26%
   2536  1160       46.0000   448       47.0000       45.0000  2427472    4.26%
   2555  1146       46.0000   388       47.0000       45.0000  2445637    4.26%
   2569  1127       46.0000   473       47.0000       45.0000  2454866    4.26%
   2585  1062       46.0000   456       47.0000       45.0000  2469323    4.26%
   2608  1037       46.0000   443       47.0000       45.0000  2493301    4.26%
   2646   995       46.0000   118       47.0000       45.0000  2535173    4.26%
   2657   991       45.0000   144       47.0000       45.0000  2545826    4.26%
Elapsed time = 204.88 sec. (120122.70 ticks, tree = 10.02 MB, solutions = 7)
   2678  1000       46.0000   431       47.0000       45.0000  2560316    4.26%
   2725   999       46.0000   166       47.0000       45.0000  2598263    4.26%
   2735   999       45.0000   185       47.0000       45.0000  2611887    4.26%
   2772  1020       46.0000    95       47.0000       45.0000  2646540    4.26%
   2801  1019       46.0000    82       47.0000       45.0000  2674064    4.26%
   2817  1026       46.0000    49       47.0000       45.0000  2694693    4.26%
*  2838   758      integral     0       46.0000       45.0000  2712793    2.17%
*  2838   588      integral     0       46.0000       45.0000  2712793    2.17%
   2843   371       45.0000   102       46.0000       45.0000  2716668    2.17%
   2870   302       45.0000   142       46.0000       45.0000  2748914    2.17%
   2901   203       45.0000   137       46.0000       45.0000  2767053    2.17%
Elapsed time = 223.08 sec. (129629.54 ticks, tree = 1.79 MB, solutions = 8)
   2917   176       45.0000   292       46.0000       45.0000  2785472    2.17%
   2955    96       45.0000   126       46.0000       45.0000  2810937    2.17%
   2973    62       45.0000   163       46.0000       45.0000  2824710    2.17%
   3002    41       45.0000   181       46.0000       45.0000  2851733    2.17%
   3026    26       45.0000   347       46.0000       45.0000  2868357    2.17%
   3051    26       45.0000   494       46.0000       45.0000  2900113    2.17%
   3084    26       45.0000   506       46.0000       45.0000  2925120    2.17%
   3112    28       45.0000   435       46.0000       45.0000  2942533    2.17%
   3123    19       45.0000   372       46.0000       45.0000  2944989    2.17%
   3162    20       45.0000   398       46.0000       45.0000  2967318    2.17%
Elapsed time = 250.50 sec. (144297.62 ticks, tree = 0.01 MB, solutions = 8)
   3191     8       45.0000   430       46.0000       45.0000  2979520    2.17%

Clique cuts applied:  37
Zero-half cuts applied:  8
Lift and project cuts applied:  1
Gomory fractional cuts applied:  47

Root node processing (before b&c):
  Real time             =   14.08 sec. (13064.73 ticks)
Parallel b&c, 4 threads:
  Real time             =  241.09 sec. (134519.31 ticks)
  Sync time (average)   =   25.58 sec.
  Wait time (average)   =   25.68 sec.
                          ------------
Total (root+branch&cut) =  255.17 sec. (147584.04 ticks)

Solution pool: 8 solutions saved.

MIP - Integer optimal solution:  Objective = 4.6000000000e+001
Solution time =  255.19 sec.  Iterations = 2983854  Nodes = 3206
Deterministic time = 147584.10 ticks  (578.34 ticks/sec)


Log started (V12.6.1.0) Thu Jan 18 01:05:20 2018


Problem 'MG_y.lp' read.
Read time = 0.19 sec. (3.41 ticks)
Tried aggregator 2 times.
MIP Presolve eliminated 18074 rows and 1298 columns.
MIP Presolve modified 144 coefficients.
Aggregator did 8 substitutions.
Reduced MIP has 3741 rows, 17584 columns, and 105823 nonzeros.
Reduced MIP has 17386 binaries, 198 generals, 0 SOSs, and 0 indicators.
Presolve time = 0.66 sec. (85.58 ticks)
Found incumbent of value 779.000000 after 1.48 sec. (213.42 ticks)
Probing time = 0.08 sec. (7.36 ticks)
Tried aggregator 1 time.
Reduced MIP has 3741 rows, 17584 columns, and 105823 nonzeros.
Reduced MIP has 17386 binaries, 198 generals, 0 SOSs, and 0 indicators.
Presolve time = 0.31 sec. (46.77 ticks)
Probing time = 0.06 sec. (6.47 ticks)
Clique table members: 46586.
MIP emphasis: balance optimality and feasibility.
MIP search method: dynamic search.
Parallel mode: deterministic, using up to 4 threads.
Root relaxation solution time = 1.30 sec. (390.12 ticks)

        Nodes                                         Cuts/
   Node  Left     Objective  IInf  Best Integer    Best Bound    ItCnt     Gap

*     0+    0                          779.0000     -655.0000           184.08%
*     0+    0                          217.0000     -655.0000           401.84%
      0     0       17.0000  1191      217.0000       17.0000       10   92.17%
      0     0       22.5111   372      217.0000      Cuts: 16     1701   89.63%
      0     0       28.5764   503      217.0000      Cuts: 41     2212   86.83%
      0     0       28.5764   504      217.0000      Cuts: 17     2681   86.83%
      0     2       28.5764   144      217.0000       28.5764     2681   86.83%
Elapsed time = 41.30 sec. (13130.13 ticks, tree = 0.00 MB, solutions = 2)
      2     4       28.5764   234      217.0000       28.5764     4001   86.83%
      4     6       28.5764   433      217.0000       28.5764     6229   86.83%
*     5+    5                           56.0000       28.5764            48.97%
      7     9       28.5764   458       56.0000       28.5764    13588   48.97%
      9    11       28.5764   515       56.0000       28.5764    18263   48.97%
     11    13       28.5764   458       56.0000       28.5764    19902   48.97%
     16    18       28.5764   383       56.0000       28.5764    28635   48.97%
     20    22       28.5764   270       56.0000       28.5764    37598   48.97%
     26    28       28.5764   643       56.0000       28.5764    43933   48.97%
*    27+   27                           50.0000       28.5764            42.85%
     30    32       28.7014   354       50.0000       28.5764    47804   42.85%
     37    37        cutoff             50.0000       28.5764    63753   42.85%
Elapsed time = 68.67 sec. (22411.30 ticks, tree = 0.00 MB, solutions = 4)
     62    62       28.5764   381       50.0000       28.5764    94455   42.85%
     95    95       28.8125   206       50.0000       28.5764   120105   42.85%
    126   126       28.5764   608       50.0000       28.5764   165774   42.85%
    146   146       28.5764   636       50.0000       28.5764   189926   42.85%
    181   181       28.5764   606       50.0000       28.5764   239306   42.85%
    298   298       34.9626   246       50.0000       28.5764   380508   42.85%
    330   330       39.2222   181       50.0000       28.5764   411211   42.85%
    351   351       38.7576   406       50.0000       28.5764   427863   42.85%
    437   435       40.7361   427       50.0000       28.5764   490182   42.85%
*   448+  440                           49.0000       28.5764            41.68%
    483   477       45.0000   478       49.0000       28.5764   525250   41.68%
Elapsed time = 116.25 sec. (35369.59 ticks, tree = 3.09 MB, solutions = 4)
    569   551       45.0000   107       49.0000       28.5764   606656   41.68%
    627   599       45.0000    80       49.0000       28.5764   657885   41.68%
    687   659       45.0000   102       49.0000       28.5764   730383   41.68%
    763   733       45.0444   125       49.0000       28.5764   791046   41.68%
    830   792       45.0000   149       49.0000       28.5764   867830   41.68%
    873   833       39.6091   229       49.0000       28.5764   937394   41.68%
    891   851       45.1429   179       49.0000       28.5764   969924   41.68%
    936   892       45.5179   141       49.0000       28.5764  1027085   41.68%
    958   906       47.0000    97       49.0000       28.5764  1053558   41.68%
    994   940       47.0000   123       49.0000       28.5764  1090599   41.68%
Elapsed time = 160.14 sec. (46099.55 ticks, tree = 8.69 MB, solutions = 5)
   1106  1024       47.3333    66       49.0000       28.5764  1122787   41.68%
   1146  1056       47.0000    40       49.0000       28.5764  1136317   41.68%
   1208  1096       31.9097   598       49.0000       28.5764  1166310   41.68%
*  1209+ 1095                           48.0000       28.5764            40.47%
   1233   947       36.2500   263       48.0000       28.5764  1183628   40.47%
   1275   989       42.2778   221       48.0000       28.5764  1212503   40.47%
   1323  1031       46.3333    87       48.0000       28.5764  1248580   40.47%
   1381  1081       46.0000   100       48.0000       28.5764  1306262   40.47%
   1435  1119       46.2000   138       48.0000       28.5764  1375206   40.47%
   1454  1128       46.5333   106       48.0000       28.5764  1402589   40.47%
   1464  1128       35.1389   286       48.0000       28.5764  1411081   40.47%
Elapsed time = 204.47 sec. (57139.22 ticks, tree = 10.94 MB, solutions = 6)
   1537  1187       44.2222   110       48.0000       28.5764  1451008   40.47%
   1565  1215       45.0000   193       48.0000       28.5764  1476574   40.47%
   1652  1296       45.0000    86       48.0000       28.5764  1553909   40.47%
   1721  1365       47.0000    63       48.0000       28.5764  1614892   40.47%
   1818  1440       44.4107   111       48.0000       28.5764  1713468   40.47%
   1826  1448       46.0000   102       48.0000       28.5764  1721667   40.47%
   1838  1458       46.0000    93       48.0000       28.5764  1733104   40.47%
*  1918  1498      integral     0       47.0000       28.5764  1792657   39.20%
   1985  1315       44.2500   131       47.0000       28.5764  1853407   39.20%
   2033  1345       44.5000   144       47.0000       28.5764  1914123   39.20%
   2119  1391       44.2500   158       47.0000       28.5764  2007216   39.20%
Elapsed time = 252.70 sec. (68505.05 ticks, tree = 13.37 MB, solutions = 7)
   2153  1423       39.1875   222       47.0000       28.5764  2040069   39.20%
   2219  1467       45.4524    94       47.0000       28.5764  2113714   39.20%
   2279  1505       45.4857    91       47.0000       28.5764  2168817   39.20%
   2319  1537       45.4857   118       47.0000       28.5764  2215352   39.20%
   2387  1595       38.0000   171       47.0000       28.5764  2275218   39.20%
   2501  1689       44.9692   111       47.0000       44.9692  2387738    4.32%
   2502  1689       45.0000   140       47.0000       44.9692  2391337    4.32%
   2505  1267       45.0000   206       47.0000       45.0000  2393046    4.26%
   2512  1272       45.0000   420       47.0000       45.0000  2397867    4.26%
   2516  1275       45.0000   434       47.0000       45.0000  2405153    4.26%
Elapsed time = 392.72 sec. (107455.48 ticks, tree = 14.35 MB, solutions = 7)
   2523  1209       45.0000   258       47.0000       45.0000  2414012    4.26%
   2525  1209       45.0000   345       47.0000       45.0000  2420331    4.26%
   2532  1160       45.0000   379       47.0000       45.0000  2423711    4.26%
   2536  1160       46.0000   448       47.0000       45.0000  2427472    4.26%
   2555  1146       46.0000   388       47.0000       45.0000  2445637    4.26%
   2569  1127       46.0000   473       47.0000       45.0000  2454866    4.26%
   2585  1062       46.0000   456       47.0000       45.0000  2469323    4.26%
   2608  1037       46.0000   443       47.0000       45.0000  2493301    4.26%
   2646   995       46.0000   118       47.0000       45.0000  2535173    4.26%
   2657   991       45.0000   144       47.0000       45.0000  2545826    4.26%
Elapsed time = 444.17 sec. (120122.70 ticks, tree = 10.02 MB, solutions = 7)
   2678  1000       46.0000   431       47.0000       45.0000  2560316    4.26%
   2725   999       46.0000   166       47.0000       45.0000  2598263    4.26%
   2735   999       45.0000   185       47.0000       45.0000  2611887    4.26%
   2772  1020       46.0000    95       47.0000       45.0000  2646540    4.26%
   2801  1019       46.0000    82       47.0000       45.0000  2674064    4.26%
*  2830   758      integral     0       46.0000       45.0000  2696998    2.17%
*  2830   585      integral     0       46.0000       45.0000  2696998    2.17%

Clique cuts applied:  35
Zero-half cuts applied:  8
Lift and project cuts applied:  1
Gomory fractional cuts applied:  54

Root node processing (before b&c):
  Real time             =   40.89 sec. (13064.73 ticks)
Parallel b&c, 4 threads:
  Real time             =  423.83 sec. (113470.61 ticks)
  Sync time (average)   =   47.68 sec.
  Wait time (average)   =   53.67 sec.
                          ------------
Total (root+branch&cut) =  464.72 sec. (126535.34 ticks)

Solution pool: 8 solutions saved.

MIP - Aborted, integer feasible:  Objective = 4.6000000000e+001
Current MIP best bound = 4.5000000000e+001 (gap = 1, 2.17%)
Solution time =  464.72 sec.  Iterations = 2707238  Nodes = 2831 (389)
Deterministic time = 126535.40 ticks  (272.28 ticks/sec)

